% seed = 5029071

mint = 45;
% maxt = 236;

nActs = 42;
dur = [0,3,4,1,3,6,4,8,5,9,5,1,4,4,9,4,10,4,10,9,10,9,1,3,7,9,9,7,10,6,2,1,1,5,4,8,10,6,10,7,8,0];

nSkills = 4;
sreq = [| 0,0,0,0,
	| 3,5,0,2,
	| 0,3,7,7,
	| 4,3,0,3,
	| 2,3,6,0,
	| 4,0,4,5,
	| 7,1,5,0,
	| 7,5,5,0,
	| 5,3,5,0,
	| 0,4,4,3,
	| 0,4,7,2,
	| 4,1,0,6,
	| 0,3,7,7,
	| 5,4,2,0,
	| 0,6,5,7,
	| 0,4,5,7,
	| 5,1,0,5,
	| 3,0,6,7,
	| 0,6,2,2,
	| 0,2,2,5,
	| 4,1,5,0,
	| 1,3,3,0,
	| 0,4,5,3,
	| 2,4,0,1,
	| 4,0,6,5,
	| 0,5,4,5,
	| 0,6,2,7,
	| 4,3,2,0,
	| 5,3,0,7,
	| 5,4,5,0,
	| 7,0,3,4,
	| 3,0,7,4,
	| 7,0,4,1,
	| 1,4,0,5,
	| 0,4,2,3,
	| 5,1,0,2,
	| 5,0,2,2,
	| 5,2,5,0,
	| 2,4,4,0,
	| 2,3,0,5,
	| 1,3,3,0,
	| 0,0,0,0, |];

nResources = 38;
mastery = [| false,false,true,true,
	| true,false,true,true,
	| true,true,true,false,
	| false,false,false,true,
	| true,false,false,false,
	| false,true,false,false,
	| false,false,true,false,
	| true,true,false,true,
	| false,false,true,true,
	| true,false,true,false,
	| false,true,false,false,
	| true,true,false,false,
	| true,false,false,false,
	| true,false,false,true,
	| false,true,true,false,
	| false,false,true,true,
	| true,true,false,true,
	| true,false,false,true,
	| true,false,true,true,
	| false,true,true,false,
	| true,false,false,true,
	| true,true,false,false,
	| true,false,false,false,
	| true,false,false,false,
	| false,true,false,true,
	| false,true,false,true,
	| true,false,false,false,
	| false,false,false,true,
	| false,false,false,true,
	| false,true,true,true,
	| true,true,true,false,
	| true,true,false,true,
	| true,false,false,false,
	| true,false,false,true,
	| false,true,true,false,
	| true,false,true,true,
	| true,true,false,true,
	| false,false,true,true, |];

nPrecs = 61;
pred = [1,1,1,2,3,3,3,4,4,4,5,5,5,6,6,6,7,7,7,8,8,8,9,10,11,11,12,13,14,15,15,16,17,18,18,19,20,21,21,22,23,24,25,26,27,28,28,29,30,31,32,33,34,34,35,36,37,38,39,40,41];
succ = [2,3,4,10,5,6,7,11,36,38,9,17,18,13,15,8,19,12,31,26,23,24,10,14,29,16,21,20,38,22,30,21,26,34,35,32,31,27,28,41,38,25,33,39,33,33,37,32,34,40,36,34,41,40,39,40,41,39,42,42,42];

nUnrels = 571;
unpred = [2,2,2,2,2,2,2,2,2,2,2,2,2,2,2,2,2,2,2,2,2,2,2,2,2,2,2,2,2,2,2,2,2,2,2,3,3,3,3,4,4,4,4,4,4,4,4,4,4,4,4,4,4,4,4,4,4,4,4,4,4,5,5,5,5,5,5,5,5,5,5,5,5,5,5,5,5,5,5,5,5,5,5,5,5,6,6,6,6,6,6,6,6,6,6,6,6,6,6,6,6,6,6,7,7,7,7,7,7,7,7,7,7,7,7,7,7,7,7,7,7,7,7,7,8,8,8,8,8,8,8,8,8,8,8,8,8,8,8,8,8,8,8,8,8,8,8,9,9,9,9,9,9,9,9,9,9,9,9,9,9,9,9,9,9,9,9,9,9,9,9,9,9,9,9,10,10,10,10,10,10,10,10,10,10,10,10,10,10,10,10,10,10,10,10,10,10,10,10,10,10,10,10,11,11,11,11,11,11,11,11,11,11,11,11,11,11,11,11,11,11,12,12,12,12,12,12,12,12,12,12,12,12,12,12,12,12,12,12,12,12,12,13,13,13,13,13,13,13,13,13,13,13,13,13,13,13,13,13,13,13,13,13,13,13,13,13,14,14,14,14,14,14,14,14,14,14,14,14,14,14,14,14,14,14,14,14,14,14,14,14,14,15,15,15,15,15,15,15,15,15,15,15,15,15,15,15,15,15,15,15,15,15,16,16,16,16,16,16,16,16,16,16,16,16,16,16,16,16,16,17,17,17,17,17,17,17,17,17,17,17,17,17,17,17,17,17,17,17,17,17,17,18,18,18,18,18,18,18,18,18,18,18,18,18,18,18,18,18,18,19,19,19,19,19,19,19,19,19,19,19,19,19,19,19,19,19,19,19,20,20,20,20,20,20,20,20,20,20,20,20,20,20,20,20,20,20,20,21,21,21,21,21,21,21,21,21,21,21,21,21,22,22,22,22,22,22,22,22,22,22,22,22,22,22,22,22,22,22,23,23,23,23,23,23,23,23,23,23,23,23,23,23,23,23,24,24,24,24,24,24,24,24,24,24,24,24,25,25,25,25,25,25,25,25,25,25,25,25,26,26,26,26,26,26,26,26,26,26,26,26,26,26,27,27,27,27,27,27,27,27,27,27,28,28,28,28,28,28,28,28,29,29,29,29,29,29,29,29,29,30,30,30,30,30,30,30,30,31,31,31,31,31,31,31,31,31,32,32,32,32,32,32,32,33,33,33,33,33,34,34,34,34,34,35,35,35,35,35,36,36,36,36,37,37,37,38,38,39,39,40];
unsucc = [3,4,5,6,7,8,9,11,12,13,15,16,17,18,19,20,21,22,23,24,25,26,27,28,29,30,31,32,33,34,35,36,37,40,41,4,11,16,29,5,6,7,8,9,10,12,13,14,15,17,18,19,20,22,23,24,25,26,30,31,35,6,7,8,11,12,13,15,16,19,20,21,22,23,24,25,27,28,29,30,31,32,33,36,37,7,9,10,11,12,14,16,17,18,19,21,27,28,29,32,35,36,37,8,9,10,11,13,14,15,16,17,18,20,22,23,24,25,26,29,30,35,38,39,9,10,11,12,13,14,15,16,17,18,19,20,21,22,27,28,29,30,31,32,35,36,37,11,12,13,15,16,17,18,19,20,21,22,23,24,25,26,27,28,29,30,31,32,33,34,35,36,37,40,41,11,12,13,15,16,17,18,19,20,21,22,23,24,25,26,27,28,29,30,31,32,33,34,35,36,37,40,41,12,13,14,15,17,18,19,20,22,23,24,25,26,30,31,35,38,39,13,14,15,16,17,18,19,20,22,23,24,25,26,29,30,31,32,35,36,38,39,14,15,16,17,18,19,21,22,23,24,25,26,27,28,29,30,32,33,34,35,36,37,38,39,41,15,16,17,18,19,20,21,22,23,24,25,26,27,28,29,30,31,32,33,34,35,36,37,40,41,16,17,18,19,20,21,23,24,25,26,27,28,29,31,32,33,35,36,37,38,39,17,18,19,20,22,23,24,25,26,29,30,31,32,35,36,38,39,18,19,20,21,22,23,24,25,27,28,29,30,31,32,33,34,35,36,37,38,40,41,19,20,21,22,23,24,25,26,27,28,29,30,31,32,33,36,37,38,20,21,22,23,24,25,26,27,28,29,30,31,33,34,35,37,38,39,41,21,22,23,24,25,26,27,28,29,30,32,33,34,35,36,37,38,39,41,22,23,24,25,26,29,30,31,32,35,36,38,39,23,24,25,26,27,28,29,30,31,32,33,34,35,36,37,38,39,40,24,25,26,27,28,29,30,31,32,33,34,35,36,37,40,41,26,27,28,29,30,31,32,35,36,37,38,39,26,27,28,29,30,31,32,35,36,37,38,39,27,28,29,30,31,32,33,34,35,36,37,38,40,41,28,29,30,31,32,35,36,37,38,39,29,30,31,32,35,36,38,39,30,31,33,34,35,37,38,39,41,31,32,33,35,36,37,38,39,32,33,34,35,36,37,38,39,41,33,34,35,37,38,39,41,35,36,37,38,39,35,36,37,38,39,36,37,38,40,41,37,38,39,41,38,39,40,40,41,40,41,41];

USEFUL_RES = [{},
	{1,2,3,4,5,6,8,9,10,11,12,13,14,15,16,17,18,19,20,21,22,23,24,25,26,27,28,29,30,31,32,33,34,35,36,37,38},
	{1,2,3,4,6,7,8,9,10,11,12,14,15,16,17,18,19,20,21,22,25,26,28,29,30,31,32,34,35,36,37,38},
	{1,2,3,4,5,6,8,9,10,11,12,13,14,15,16,17,18,19,20,21,22,23,24,25,26,27,28,29,30,31,32,33,34,35,36,37,38},
	{1,2,3,5,6,7,8,9,10,11,12,13,14,15,16,17,18,19,20,21,22,23,24,25,26,27,30,31,32,33,34,35,36,37,38},
	{1,2,3,4,5,7,8,9,10,12,13,14,15,16,17,18,19,20,21,22,23,24,25,26,27,28,29,30,31,32,33,34,35,36,37,38},
	{1,2,3,5,6,7,8,9,10,11,12,13,14,15,16,17,18,19,20,21,22,23,24,25,26,27,30,31,32,33,34,35,36,37,38},
	{1,2,3,5,6,7,8,9,10,11,12,13,14,15,16,17,18,19,20,21,22,23,24,25,26,27,30,31,32,33,34,35,36,37,38},
	{1,2,3,5,6,7,8,9,10,11,12,13,14,15,16,17,18,19,20,21,22,23,24,25,26,27,30,31,32,33,34,35,36,37,38},
	{1,2,3,4,6,7,8,9,10,11,12,14,15,16,17,18,19,20,21,22,25,26,28,29,30,31,32,34,35,36,37,38},
	{1,2,3,4,6,7,8,9,10,11,12,14,15,16,17,18,19,20,21,22,25,26,28,29,30,31,32,34,35,36,37,38},
	{1,2,3,4,5,6,8,9,10,11,12,13,14,15,16,17,18,19,20,21,22,23,24,25,26,27,28,29,30,31,32,33,34,35,36,37,38},
	{1,2,3,4,6,7,8,9,10,11,12,14,15,16,17,18,19,20,21,22,25,26,28,29,30,31,32,34,35,36,37,38},
	{1,2,3,5,6,7,8,9,10,11,12,13,14,15,16,17,18,19,20,21,22,23,24,25,26,27,30,31,32,33,34,35,36,37,38},
	{1,2,3,4,6,7,8,9,10,11,12,14,15,16,17,18,19,20,21,22,25,26,28,29,30,31,32,34,35,36,37,38},
	{1,2,3,4,6,7,8,9,10,11,12,14,15,16,17,18,19,20,21,22,25,26,28,29,30,31,32,34,35,36,37,38},
	{1,2,3,4,5,6,8,9,10,11,12,13,14,15,16,17,18,19,20,21,22,23,24,25,26,27,28,29,30,31,32,33,34,35,36,37,38},
	{1,2,3,4,5,7,8,9,10,12,13,14,15,16,17,18,19,20,21,22,23,24,25,26,27,28,29,30,31,32,33,34,35,36,37,38},
	{1,2,3,4,6,7,8,9,10,11,12,14,15,16,17,18,19,20,21,22,25,26,28,29,30,31,32,34,35,36,37,38},
	{1,2,3,4,6,7,8,9,10,11,12,14,15,16,17,18,19,20,21,22,25,26,28,29,30,31,32,34,35,36,37,38},
	{1,2,3,5,6,7,8,9,10,11,12,13,14,15,16,17,18,19,20,21,22,23,24,25,26,27,30,31,32,33,34,35,36,37,38},
	{1,2,3,5,6,7,8,9,10,11,12,13,14,15,16,17,18,19,20,21,22,23,24,25,26,27,30,31,32,33,34,35,36,37,38},
	{1,2,3,4,6,7,8,9,10,11,12,14,15,16,17,18,19,20,21,22,25,26,28,29,30,31,32,34,35,36,37,38},
	{1,2,3,4,5,6,8,9,10,11,12,13,14,15,16,17,18,19,20,21,22,23,24,25,26,27,28,29,30,31,32,33,34,35,36,37,38},
	{1,2,3,4,5,7,8,9,10,12,13,14,15,16,17,18,19,20,21,22,23,24,25,26,27,28,29,30,31,32,33,34,35,36,37,38},
	{1,2,3,4,6,7,8,9,10,11,12,14,15,16,17,18,19,20,21,22,25,26,28,29,30,31,32,34,35,36,37,38},
	{1,2,3,4,6,7,8,9,10,11,12,14,15,16,17,18,19,20,21,22,25,26,28,29,30,31,32,34,35,36,37,38},
	{1,2,3,5,6,7,8,9,10,11,12,13,14,15,16,17,18,19,20,21,22,23,24,25,26,27,30,31,32,33,34,35,36,37,38},
	{1,2,3,4,5,6,8,9,10,11,12,13,14,15,16,17,18,19,20,21,22,23,24,25,26,27,28,29,30,31,32,33,34,35,36,37,38},
	{1,2,3,5,6,7,8,9,10,11,12,13,14,15,16,17,18,19,20,21,22,23,24,25,26,27,30,31,32,33,34,35,36,37,38},
	{1,2,3,4,5,7,8,9,10,12,13,14,15,16,17,18,19,20,21,22,23,24,25,26,27,28,29,30,31,32,33,34,35,36,37,38},
	{1,2,3,4,5,7,8,9,10,12,13,14,15,16,17,18,19,20,21,22,23,24,25,26,27,28,29,30,31,32,33,34,35,36,37,38},
	{1,2,3,4,5,7,8,9,10,12,13,14,15,16,17,18,19,20,21,22,23,24,25,26,27,28,29,30,31,32,33,34,35,36,37,38},
	{1,2,3,4,5,6,8,9,10,11,12,13,14,15,16,17,18,19,20,21,22,23,24,25,26,27,28,29,30,31,32,33,34,35,36,37,38},
	{1,2,3,4,6,7,8,9,10,11,12,14,15,16,17,18,19,20,21,22,25,26,28,29,30,31,32,34,35,36,37,38},
	{1,2,3,4,5,6,8,9,10,11,12,13,14,15,16,17,18,19,20,21,22,23,24,25,26,27,28,29,30,31,32,33,34,35,36,37,38},
	{1,2,3,4,5,7,8,9,10,12,13,14,15,16,17,18,19,20,21,22,23,24,25,26,27,28,29,30,31,32,33,34,35,36,37,38},
	{1,2,3,5,6,7,8,9,10,11,12,13,14,15,16,17,18,19,20,21,22,23,24,25,26,27,30,31,32,33,34,35,36,37,38},
	{1,2,3,5,6,7,8,9,10,11,12,13,14,15,16,17,18,19,20,21,22,23,24,25,26,27,30,31,32,33,34,35,36,37,38},
	{1,2,3,4,5,6,8,9,10,11,12,13,14,15,16,17,18,19,20,21,22,23,24,25,26,27,28,29,30,31,32,33,34,35,36,37,38},
	{1,2,3,5,6,7,8,9,10,11,12,13,14,15,16,17,18,19,20,21,22,23,24,25,26,27,30,31,32,33,34,35,36,37,38},
	{}];

POTENTIAL_ACT = [{2,3,4,5,6,7,8,9,10,11,12,13,14,15,16,17,18,19,20,21,22,23,24,25,26,27,28,29,30,31,32,33,34,35,36,37,38,39,40,41},
	{2,3,4,5,6,7,8,9,10,11,12,13,14,15,16,17,18,19,20,21,22,23,24,25,26,27,28,29,30,31,32,33,34,35,36,37,38,39,40,41},
	{2,3,4,5,6,7,8,9,10,11,12,13,14,15,16,17,18,19,20,21,22,23,24,25,26,27,28,29,30,31,32,33,34,35,36,37,38,39,40,41},
	{2,3,4,6,10,11,12,13,15,16,17,18,19,20,23,24,25,26,27,29,31,32,33,34,35,36,37,40},
	{2,4,5,6,7,8,9,12,14,17,18,21,22,24,25,28,29,30,31,32,33,34,36,37,38,39,40,41},
	{2,3,4,5,7,8,9,10,11,12,13,14,15,16,17,19,20,21,22,23,24,26,27,28,29,30,34,35,36,38,39,40,41},
	{3,5,6,7,8,9,10,11,13,14,15,16,18,19,20,21,22,23,25,26,27,28,30,31,32,33,35,37,38,39,41},
	{2,3,4,5,6,7,8,9,10,11,12,13,14,15,16,17,18,19,20,21,22,23,24,25,26,27,28,29,30,31,32,33,34,35,36,37,38,39,40,41},
	{2,3,4,5,6,7,8,9,10,11,12,13,14,15,16,17,18,19,20,21,22,23,24,25,26,27,28,29,30,31,32,33,34,35,36,37,38,39,40,41},
	{2,3,4,5,6,7,8,9,10,11,12,13,14,15,16,17,18,19,20,21,22,23,24,25,26,27,28,29,30,31,32,33,34,35,36,37,38,39,40,41},
	{2,3,4,5,7,8,9,10,11,12,13,14,15,16,17,19,20,21,22,23,24,26,27,28,29,30,34,35,36,38,39,40,41},
	{2,3,4,5,6,7,8,9,10,11,12,13,14,15,16,17,18,19,20,21,22,23,24,25,26,27,28,29,30,31,32,33,34,35,36,37,38,39,40,41},
	{2,4,5,6,7,8,9,12,14,17,18,21,22,24,25,28,29,30,31,32,33,34,36,37,38,39,40,41},
	{2,3,4,5,6,7,8,9,10,11,12,13,14,15,16,17,18,19,20,21,22,23,24,25,26,27,28,29,30,31,32,33,34,35,36,37,38,39,40,41},
	{2,3,4,5,6,7,8,9,10,11,12,13,14,15,16,17,18,19,20,21,22,23,24,25,26,27,28,29,30,31,32,33,34,35,36,37,38,39,40,41},
	{2,3,4,5,6,7,8,9,10,11,12,13,14,15,16,17,18,19,20,21,22,23,24,25,26,27,28,29,30,31,32,33,34,35,36,37,38,39,40,41},
	{2,3,4,5,6,7,8,9,10,11,12,13,14,15,16,17,18,19,20,21,22,23,24,25,26,27,28,29,30,31,32,33,34,35,36,37,38,39,40,41},
	{2,3,4,5,6,7,8,9,10,11,12,13,14,15,16,17,18,19,20,21,22,23,24,25,26,27,28,29,30,31,32,33,34,35,36,37,38,39,40,41},
	{2,3,4,5,6,7,8,9,10,11,12,13,14,15,16,17,18,19,20,21,22,23,24,25,26,27,28,29,30,31,32,33,34,35,36,37,38,39,40,41},
	{2,3,4,5,6,7,8,9,10,11,12,13,14,15,16,17,18,19,20,21,22,23,24,25,26,27,28,29,30,31,32,33,34,35,36,37,38,39,40,41},
	{2,3,4,5,6,7,8,9,10,11,12,13,14,15,16,17,18,19,20,21,22,23,24,25,26,27,28,29,30,31,32,33,34,35,36,37,38,39,40,41},
	{2,3,4,5,6,7,8,9,10,11,12,13,14,15,16,17,18,19,20,21,22,23,24,25,26,27,28,29,30,31,32,33,34,35,36,37,38,39,40,41},
	{2,4,5,6,7,8,9,12,14,17,18,21,22,24,25,28,29,30,31,32,33,34,36,37,38,39,40,41},
	{2,4,5,6,7,8,9,12,14,17,18,21,22,24,25,28,29,30,31,32,33,34,36,37,38,39,40,41},
	{2,3,4,5,6,7,8,9,10,11,12,13,14,15,16,17,18,19,20,21,22,23,24,25,26,27,28,29,30,31,32,33,34,35,36,37,38,39,40,41},
	{2,3,4,5,6,7,8,9,10,11,12,13,14,15,16,17,18,19,20,21,22,23,24,25,26,27,28,29,30,31,32,33,34,35,36,37,38,39,40,41},
	{2,4,5,6,7,8,9,12,14,17,18,21,22,24,25,28,29,30,31,32,33,34,36,37,38,39,40,41},
	{2,3,4,6,10,11,12,13,15,16,17,18,19,20,23,24,25,26,27,29,31,32,33,34,35,36,37,40},
	{2,3,4,6,10,11,12,13,15,16,17,18,19,20,23,24,25,26,27,29,31,32,33,34,35,36,37,40},
	{2,3,4,5,6,7,8,9,10,11,12,13,14,15,16,17,18,19,20,21,22,23,24,25,26,27,28,29,30,31,32,33,34,35,36,37,38,39,40,41},
	{2,3,4,5,6,7,8,9,10,11,12,13,14,15,16,17,18,19,20,21,22,23,24,25,26,27,28,29,30,31,32,33,34,35,36,37,38,39,40,41},
	{2,3,4,5,6,7,8,9,10,11,12,13,14,15,16,17,18,19,20,21,22,23,24,25,26,27,28,29,30,31,32,33,34,35,36,37,38,39,40,41},
	{2,4,5,6,7,8,9,12,14,17,18,21,22,24,25,28,29,30,31,32,33,34,36,37,38,39,40,41},
	{2,3,4,5,6,7,8,9,10,11,12,13,14,15,16,17,18,19,20,21,22,23,24,25,26,27,28,29,30,31,32,33,34,35,36,37,38,39,40,41},
	{2,3,4,5,6,7,8,9,10,11,12,13,14,15,16,17,18,19,20,21,22,23,24,25,26,27,28,29,30,31,32,33,34,35,36,37,38,39,40,41},
	{2,3,4,5,6,7,8,9,10,11,12,13,14,15,16,17,18,19,20,21,22,23,24,25,26,27,28,29,30,31,32,33,34,35,36,37,38,39,40,41},
	{2,3,4,5,6,7,8,9,10,11,12,13,14,15,16,17,18,19,20,21,22,23,24,25,26,27,28,29,30,31,32,33,34,35,36,37,38,39,40,41},
	{2,3,4,5,6,7,8,9,10,11,12,13,14,15,16,17,18,19,20,21,22,23,24,25,26,27,28,29,30,31,32,33,34,35,36,37,38,39,40,41}];
